\ This file has been generated by DOcplex
\ ENCODING=ISO-8859-1
\Problem name: AMC Quadratic Optimization

Minimize
 obj: x_0 + x_1 + x_2 + y_0 + y_1 + y_2 + u_0 + u_1 + [ 2 x_2*y_0 + 2 x_2*y_2
      ]/2
Subject To
 Constraint: 53 x_1 + 70 x_2 + 71 y_1 + 74 y_2 + 123 u_1 = 2460

Bounds
 0 <= x_0 <= 1
 0 <= x_1 <= 1
 0 <= x_2 <= 1
 0 <= y_0 <= 1
 0 <= y_1 <= 1
 0 <= y_2 <= 1

Binaries
 x_0 x_1 x_2 y_0 y_1 y_2
End
